Traveling Salesman Problem/TSP_generados/Aleatorio1621103294_8.tsp
NAME: Aleatorio1621103294_8.tsp
COMMENT: Randomly generated scenario
TYPE: TSP
DIMENSION: 8
EDGE_WEIGHT_TYPE: ATT
NODE_COORD_SECTION
1 17.78 49.64
2 43.03 25.21
3 22.04 3.35
4 30.99 16.13
5 0.31 42.92
6 12.06 2.91
7 37.07 45.61
8 0.95 42.55
