Traveling Salesman Problem/TSP_generados/Aleatorio1621103294_8.opt.tour
NAME: Aleatorio1621103294_8.opt.tour
COMMENT: Optimal solution for Aleatorio1621103294_8 (142.25592027523436)
TYPE: TOUR
DIMENSION: 8
TOUR_SECTION
1 5 8 6 3 4 2 7
-1
EOF
